(set-logic HORN)
(set-info :source |
    Benchmark: C_VC
    Output by Princess (http://www.philipp.ruemmer.org/princess.shtml)
|)
(set-info :status unknown)
(declare-fun inv_main12 (Int Int) Bool)
(declare-fun inv_main18 (Int Int) Bool)
(declare-fun inv_main24 (Int Int) Bool)
(declare-fun inv_main30 (Int Int) Bool)
(declare-fun inv_main6 (Int Int) Bool)
(assert (forall ((var0 Int) (var1 Int) (var2 Int) (var3 Int) (var4 Int)) (or (not (and (and (<= 0 var2) (<= 0 var1)) (<= 0 var0))) (or (not (and (inv_main6 var0 (* 2 var4)) (and (and (and (= (+ (* 2 var4) (* (- 2) var3)) 0) (<= 0 (+ (+ 99 (* (- 1) var0)) (- 1)))) (= (+ var2 (* (- 2) var4)) 0)) (= (+ (+ var0 2) 2) var1)))) (inv_main12 var1 var2)))))
(assert (forall ((var0 Int) (var1 Int) (var2 Int) (var3 Int)) (or (not (and (and (<= 0 var3) (<= 0 var2)) (<= 0 var1))) (or (not (and (inv_main6 var1 (+ (* 2 var0) 1)) (and (and (and (= (+ var3 (* (- 1) var1)) (- 1)) (= (+ var2 (* (- 2) var0)) 1)) (<= 0 (+ 98 (* (- 1) var1)))) (<= 0 var0)))) (inv_main12 var3 var2)))))
(assert (forall ((var0 Int) (var1 Int) (var2 Int) (var3 Int)) (or (not (and (and (<= 0 var3) (<= 0 var2)) (<= 0 var1))) (or (not (and (inv_main6 var1 (+ (* 2 var0) (- 1))) (and (and (and (= (+ var3 (* (- 1) var1)) (- 1)) (= (+ var2 (* (- 2) var0)) (- 1))) (<= 0 (+ 98 (* (- 1) var1)))) (<= 0 (* (- 1) var0))))) (inv_main12 var3 var2)))))
(assert (forall ((var0 Int) (var1 Int) (var2 Int) (var3 Int) (var4 Int)) (or (not (and (and (<= 0 var3) (<= 0 var1)) (<= 0 var0))) (or (not (and (inv_main12 var1 (* 2 var4)) (and (and (= (+ (* 2 var4) (* (- 2) var2)) 0) (= (+ var3 (* (- 2) var4)) 0)) (= (+ (+ var1 2) 2) var0)))) (inv_main18 var0 var3)))))
(assert (forall ((var0 Int) (var1 Int) (var2 Int)) (or (not (and (<= 0 var2) (<= 0 var1))) (or (not (and (inv_main12 var1 (+ (* 2 var0) 1)) (and (= (+ var2 (* (- 2) var0)) 1) (<= 0 var0)))) (inv_main18 var1 var2)))))
(assert (forall ((var0 Int) (var1 Int) (var2 Int)) (or (not (and (<= 0 var2) (<= 0 var1))) (or (not (and (inv_main12 var1 (+ (* 2 var0) (- 1))) (and (= (+ var2 (* (- 2) var0)) (- 1)) (<= 0 (* (- 1) var0))))) (inv_main18 var1 var2)))))
(assert (forall ((var0 Int) (var1 Int) (var2 Int) (var3 Int) (var4 Int)) (or (not (and (and (<= 0 var3) (<= 0 var1)) (<= 0 var0))) (or (not (and (inv_main18 var0 (* 2 var4)) (and (and (= (+ (* 2 var4) (* (- 2) var2)) 0) (= (+ var3 (* (- 2) var4)) 0)) (= (+ (+ var0 2) 2) var1)))) (inv_main24 var1 var3)))))
(assert (forall ((var0 Int) (var1 Int) (var2 Int) (var3 Int)) (or (not (and (and (<= 0 var3) (<= 0 var2)) (<= 0 var1))) (or (not (and (inv_main18 var1 (+ (* 2 var0) 1)) (and (and (= (+ var2 (* (- 1) var1)) (- 2)) (= (+ var3 (* (- 2) var0)) 1)) (<= 0 var0)))) (inv_main24 var2 var3)))))
(assert (forall ((var0 Int) (var1 Int) (var2 Int) (var3 Int)) (or (not (and (and (<= 0 var3) (<= 0 var2)) (<= 0 var1))) (or (not (and (inv_main18 var1 (+ (* 2 var0) (- 1))) (and (and (= (+ var2 (* (- 1) var1)) (- 2)) (= (+ var3 (* (- 2) var0)) (- 1))) (<= 0 (* (- 1) var0))))) (inv_main24 var2 var3)))))
(assert (forall ((var0 Int) (var1 Int) (var2 Int) (var3 Int) (var4 Int)) (or (not (and (and (<= 0 var4) (<= 0 var2)) (<= 0 var1))) (or (not (and (inv_main24 var1 (* 2 var0)) (and (and (= (+ (* 2 var0) (* (- 2) var3)) 0) (= (+ var2 (* (- 2) var0)) 0)) (= (+ (+ var1 2) 2) var4)))) (inv_main30 var4 var2)))))
(assert (forall ((var0 Int) (var1 Int) (var2 Int) (var3 Int)) (or (not (and (and (<= 0 var3) (<= 0 var2)) (<= 0 var1))) (or (not (and (inv_main24 var2 (+ (* 2 var0) 1)) (and (and (= (+ var1 (* (- 1) var2)) 6) (= (+ var3 (* (- 2) var0)) 1)) (<= 0 var0)))) (inv_main30 var1 var3)))))
(assert (forall ((var0 Int) (var1 Int) (var2 Int) (var3 Int)) (or (not (and (and (<= 0 var3) (<= 0 var2)) (<= 0 var1))) (or (not (and (inv_main24 var2 (+ (* 2 var0) (- 1))) (and (and (= (+ var1 (* (- 1) var2)) 6) (= (+ var3 (* (- 2) var0)) (- 1))) (<= 0 (* (- 1) var0))))) (inv_main30 var1 var3)))))
(assert (forall ((var0 Int) (var1 Int) (var2 Int) (var3 Int) (var4 Int)) (or (not (and (and (<= 0 var3) (<= 0 var2)) (<= 0 var0))) (or (not (and (inv_main30 var2 (* 2 var4)) (and (and (= (+ (* 2 var4) (* (- 2) var1)) 0) (= (+ var3 (* (- 2) var4)) 0)) (= (+ (+ var2 2) 2) var0)))) (inv_main6 var0 var3)))))
(assert (forall ((var0 Int) (var1 Int) (var2 Int) (var3 Int)) (or (not (and (and (<= 0 var2) (<= 0 var1)) (<= 0 var0))) (or (not (and (inv_main30 var1 (+ (* 2 var3) 1)) (and (and (= (+ var0 (* (- 1) var1)) (- 8)) (= (+ var2 (* (- 2) var3)) 1)) (<= 0 var3)))) (inv_main6 var0 var2)))))
(assert (forall ((var0 Int) (var1 Int) (var2 Int) (var3 Int)) (or (not (and (and (<= 0 var2) (<= 0 var1)) (<= 0 var0))) (or (not (and (inv_main30 var1 (+ (* 2 var3) (- 1))) (and (and (= (+ var0 (* (- 1) var1)) (- 8)) (= (+ var2 (* (- 2) var3)) (- 1))) (<= 0 (* (- 1) var3))))) (inv_main6 var0 var2)))))
(assert (forall ((var0 Int) (var1 Int)) (or (not (<= 0 var0)) (or (not (and (<= 0 var1) (= 0 var0))) (inv_main6 var0 var1)))))
(assert (forall ((var0 Int) (var1 Int)) (not (and (inv_main6 (* 2 var0) (+ (* 2 var1) 1)) (and (<= 0 var1) (<= 0 (+ (- 50) var0)))))))
(assert (forall ((var0 Int) (var1 Int) (var2 Int)) (not (and (inv_main6 (+ (* 2 var1) var0) (+ (* 2 var2) (- 1))) (and (and (and (<= 0 (* (- 1) var2)) (<= 0 (+ (- 99) (+ (* 2 var1) var0)))) (<= 0 (+ 1 (* (- 1) var0)))) (<= 0 var0))))))
(assert (forall ((var0 Int) (var1 Int)) (not (and (inv_main6 (+ (* 2 var0) 1) (* 2 var1)) (<= 0 (+ (- 49) var0))))))
(check-sat)
